(set-logic QF_LIA)
(set-option :produce-models true)
(set-option :produce-assignments true)

(declare-const a11 Int)
(declare-const a12 Int)
(declare-const a13 Int)
(declare-const a14 Int)
(declare-const a15 Int)
(declare-const a16 Int)
(declare-const a17 Int)
(declare-const a18 Int)
(declare-const a19 Int)
(declare-const a21 Int)
(declare-const a22 Int)
(declare-const a23 Int)
(declare-const a24 Int)
(declare-const a25 Int)
(declare-const a26 Int)
(declare-const a27 Int)
(declare-const a28 Int)
(declare-const a29 Int)
(declare-const a31 Int)
(declare-const a32 Int)
(declare-const a33 Int)
(declare-const a34 Int)
(declare-const a35 Int)
(declare-const a36 Int)
(declare-const a37 Int)
(declare-const a38 Int)
(declare-const a39 Int)
(declare-const a41 Int)
(declare-const a42 Int)
(declare-const a43 Int)
(declare-const a44 Int)
(declare-const a45 Int)
(declare-const a46 Int)
(declare-const a47 Int)
(declare-const a48 Int)
(declare-const a49 Int)
(declare-const a51 Int)
(declare-const a52 Int)
(declare-const a53 Int)
(declare-const a54 Int)
(declare-const a55 Int)
(declare-const a56 Int)
(declare-const a57 Int)
(declare-const a58 Int)
(declare-const a59 Int)
(declare-const a61 Int)
(declare-const a62 Int)
(declare-const a63 Int)
(declare-const a64 Int)
(declare-const a65 Int)
(declare-const a66 Int)
(declare-const a67 Int)
(declare-const a68 Int)
(declare-const a69 Int)
(declare-const a71 Int)
(declare-const a72 Int)
(declare-const a73 Int)
(declare-const a74 Int)
(declare-const a75 Int)
(declare-const a76 Int)
(declare-const a77 Int)
(declare-const a78 Int)
(declare-const a79 Int)
(declare-const a81 Int)
(declare-const a82 Int)
(declare-const a83 Int)
(declare-const a84 Int)
(declare-const a85 Int)
(declare-const a86 Int)
(declare-const a87 Int)
(declare-const a88 Int)
(declare-const a89 Int)
(declare-const a91 Int)
(declare-const a92 Int)
(declare-const a93 Int)
(declare-const a94 Int)
(declare-const a95 Int)
(declare-const a96 Int)
(declare-const a97 Int)
(declare-const a98 Int)
(declare-const a99 Int)

(assert(and(> a11 0)(< a11 10)))
(assert(and(> a12 0)(< a12 10)))
(assert(and(> a13 0)(< a13 10)))
(assert(and(> a14 0)(< a14 10)))
(assert(and(> a15 0)(< a15 10)))
(assert(and(> a16 0)(< a16 10)))
(assert(and(> a17 0)(< a17 10)))
(assert(and(> a18 0)(< a18 10)))
(assert(and(> a19 0)(< a19 10)))
(assert(and(> a21 0)(< a21 10)))
(assert(and(> a22 0)(< a22 10)))
(assert(and(> a23 0)(< a23 10)))
(assert(and(> a24 0)(< a24 10)))
(assert(and(> a25 0)(< a25 10)))
(assert(and(> a26 0)(< a26 10)))
(assert(and(> a27 0)(< a27 10)))
(assert(and(> a28 0)(< a28 10)))
(assert(and(> a29 0)(< a29 10)))
(assert(and(> a31 0)(< a31 10)))
(assert(and(> a32 0)(< a32 10)))
(assert(and(> a33 0)(< a33 10)))
(assert(and(> a34 0)(< a34 10)))
(assert(and(> a35 0)(< a35 10)))
(assert(and(> a36 0)(< a36 10)))
(assert(and(> a37 0)(< a37 10)))
(assert(and(> a38 0)(< a38 10)))
(assert(and(> a39 0)(< a39 10)))
(assert(and(> a41 0)(< a41 10)))
(assert(and(> a42 0)(< a42 10)))
(assert(and(> a43 0)(< a43 10)))
(assert(and(> a44 0)(< a44 10)))
(assert(and(> a45 0)(< a45 10)))
(assert(and(> a46 0)(< a46 10)))
(assert(and(> a47 0)(< a47 10)))
(assert(and(> a48 0)(< a48 10)))
(assert(and(> a49 0)(< a49 10)))
(assert(and(> a51 0)(< a51 10)))
(assert(and(> a52 0)(< a52 10)))
(assert(and(> a53 0)(< a53 10)))
(assert(and(> a54 0)(< a54 10)))
(assert(and(> a55 0)(< a55 10)))
(assert(and(> a56 0)(< a56 10)))
(assert(and(> a57 0)(< a57 10)))
(assert(and(> a58 0)(< a58 10)))
(assert(and(> a59 0)(< a59 10)))
(assert(and(> a61 0)(< a61 10)))
(assert(and(> a62 0)(< a62 10)))
(assert(and(> a63 0)(< a63 10)))
(assert(and(> a64 0)(< a64 10)))
(assert(and(> a65 0)(< a65 10)))
(assert(and(> a66 0)(< a66 10)))
(assert(and(> a67 0)(< a67 10)))
(assert(and(> a68 0)(< a68 10)))
(assert(and(> a69 0)(< a69 10)))
(assert(and(> a71 0)(< a71 10)))
(assert(and(> a72 0)(< a72 10)))
(assert(and(> a73 0)(< a73 10)))
(assert(and(> a74 0)(< a74 10)))
(assert(and(> a75 0)(< a75 10)))
(assert(and(> a76 0)(< a76 10)))
(assert(and(> a77 0)(< a77 10)))
(assert(and(> a78 0)(< a78 10)))
(assert(and(> a79 0)(< a79 10)))
(assert(and(> a81 0)(< a81 10)))
(assert(and(> a82 0)(< a82 10)))
(assert(and(> a83 0)(< a83 10)))
(assert(and(> a84 0)(< a84 10)))
(assert(and(> a85 0)(< a85 10)))
(assert(and(> a86 0)(< a86 10)))
(assert(and(> a87 0)(< a87 10)))
(assert(and(> a88 0)(< a88 10)))
(assert(and(> a89 0)(< a89 10)))
(assert(and(> a91 0)(< a91 10)))
(assert(and(> a92 0)(< a92 10)))
(assert(and(> a93 0)(< a93 10)))
(assert(and(> a94 0)(< a94 10)))
(assert(and(> a95 0)(< a95 10)))
(assert(and(> a96 0)(< a96 10)))
(assert(and(> a97 0)(< a97 10)))
(assert(and(> a98 0)(< a98 10)))
(assert(and(> a99 0)(< a99 10)))

(assert(= a11 1))
(assert(= a23 4))
(assert(= a34 5))
(assert(= a36 6))
(assert(= a65 2))
(assert(= a68 8))
(assert(= a92 5))

(assert(distinct a11 a12 a13 a14 a15 a16 a17 a18 a19))
(assert(distinct a21 a22 a23 a24 a25 a26 a27 a28 a29))
(assert(distinct a31 a32 a33 a34 a35 a36 a37 a38 a39))
(assert(distinct a41 a42 a43 a44 a45 a46 a47 a48 a49))
(assert(distinct a51 a52 a53 a54 a55 a56 a57 a58 a59))
(assert(distinct a61 a62 a63 a64 a65 a66 a67 a68 a69))
(assert(distinct a71 a72 a73 a74 a75 a76 a77 a78 a79))
(assert(distinct a81 a82 a83 a84 a85 a86 a87 a88 a89))
(assert(distinct a91 a92 a93 a94 a95 a96 a97 a98 a99))

(assert(distinct a11 a21 a31 a41 a51 a61 a71 a81 a91))
(assert(distinct a12 a22 a32 a42 a52 a62 a72 a82 a92))
(assert(distinct a13 a23 a33 a43 a53 a63 a73 a83 a93))
(assert(distinct a14 a24 a34 a44 a54 a64 a74 a84 a94))
(assert(distinct a15 a25 a35 a45 a55 a65 a75 a85 a95))
(assert(distinct a16 a26 a36 a46 a56 a66 a76 a86 a96))
(assert(distinct a17 a27 a37 a47 a57 a67 a77 a87 a97))
(assert(distinct a18 a28 a38 a48 a58 a68 a78 a88 a98))
(assert(distinct a19 a29 a39 a49 a59 a69 a79 a89 a99))

(assert(distinct a11 a12 a13 a21 a22 a23 a31 a32 a33))
(assert(distinct a14 a15 a16 a24 a25 a26 a34 a35 a36))
(assert(distinct a17 a18 a19 a27 a28 a29 a37 a38 a39))
(assert(distinct a41 a42 a43 a51 a52 a53 a61 a62 a63))
(assert(distinct a44 a45 a46 a54 a55 a56 a64 a65 a66))
(assert(distinct a47 a48 a49 a57 a58 a59 a67 a68 a69))
(assert(distinct a71 a72 a73 a81 a82 a83 a91 a92 a93))
(assert(distinct a74 a75 a76 a84 a85 a86 a94 a95 a96))
(assert(distinct a77 a78 a79 a87 a88 a89 a97 a98 a99))

(check-sat)
(get-value(a11 a12 a13 a14 a15 a16 a17 a18 a19 a21 a22 a23 a24 a25 a26 a27 a28 a29 a31 a32 a33 a34 a35 a36 a37 a38 a39 a41 a42 a43 a44 a45 a46 a47 a48 a49 a51 a52 a53 a54 a55 a56 a57 a58 a59 a61 a62 a63 a64 a65 a66 a67 a68 a69 a71 a72 a73 a74 a75 a76 a77 a78 a79 a81 a82 a83 a84 a85 a86 a87 a88 a89 a91 a92 a93 a94 a95 a96 a97 a98 a99))

(exit)
